p cnf 10 20
3 9 -4 0
-9 5 -8 0
-5 -10 -4 0
-4 9 -5 0
10 -3 7 0
-4 7 3 0
-7 -4 9 0
-4 3 6 0
9 4 10 0
3 -1 9 0
-4 -2 8 0
10 -2 -1 0
7 -10 -3 0
-10 8 -6 0
1 -6 -10 0
8 10 3 0
1 -7 -10 0
1 10 2 0
10 8 -3 0
-10 -7 -9 0
